NAME          COPTPROB
OBJSENSE
  MIN
ROWS
 N  __OBJ___
 L  C19     
 L  C62     
 L  C126    
 L  C136    
COLUMNS
    MARKER    'MARKER'                 'INTORG'
    x68       __OBJ___  487
    x68       C62       -1
    x68       C126      -1
    x149      __OBJ___  771
    x149      C19       -1
    x149      C126      -1
    x168      __OBJ___  886
    x168      C19       -1
    x168      C136      -1
    x225      __OBJ___  442
    x225      C136      -1
    x269      __OBJ___  174
    x269      C126      -1
    x299      __OBJ___  619
    x299      C19       -1
    x362      __OBJ___  770
    x362      C62       -1
    x362      C136      -1
    MARKER    'MARKER'                 'INTEND'
RHS
    RHS       __OBJ___  -31774
    RHS       C19       -1
    RHS       C62       -1
    RHS       C126      -1
    RHS       C136      -1
BOUNDS
 UP BOUND     x68       1
 UP BOUND     x149      1
 UP BOUND     x168      1
 UP BOUND     x225      1
 UP BOUND     x269      1
 UP BOUND     x299      1
 UP BOUND     x362      1
ENDATA
